c 
c G(k,n,p) graph
c graph gen seed     : 45381
c number of vertices : 80
c max number of edges: 1600
c number of classes  : 2
c edge density       : 0.200000
c edge probability   : 0.400000
c data structure     : sparse
c
c           Graph Stats
c number of vertices  : 80
c nonisolated vertices: 80
c number of edges     : 633
c edge density        : 0.200316
c max degree          : 24
c avg degree          : 15.82
c min degree          : 10
p col 80 633
e 1 79
e 1 76
e 1 75
e 1 74
e 1 69
e 1 59
e 1 57
e 1 54
e 1 46
e 1 41
e 1 40
e 1 30
e 1 20
e 1 6
e 1 5
e 2 80
e 2 74
e 2 69
e 2 41
e 2 37
e 2 34
e 2 32
e 2 31
e 2 25
e 2 19
e 2 15
e 2 11
e 2 5
e 2 4
e 2 3
e 3 71
e 3 70
e 3 66
e 3 64
e 3 62
e 3 53
e 3 52
e 3 51
e 3 35
e 3 26
e 3 12
e 3 10
e 3 7
e 4 71
e 4 68
e 4 67
e 4 62
e 4 60
e 4 55
e 4 52
e 4 51
e 4 48
e 4 47
e 4 44
e 4 36
e 4 27
e 4 22
e 4 21
e 4 12
e 4 7
e 5 72
e 5 70
e 5 68
e 5 67
e 5 66
e 5 62
e 5 61
e 5 51
e 5 47
e 5 38
e 5 36
e 5 35
e 5 33
e 5 28
e 5 27
e 5 26
e 5 22
e 5 21
e 5 17
e 5 16
e 5 10
e 5 7
e 6 72
e 6 71
e 6 64
e 6 56
e 6 55
e 6 52
e 6 49
e 6 44
e 6 43
e 6 38
e 6 33
e 6 24
e 6 21
e 6 14
e 7 80
e 7 75
e 7 69
e 7 63
e 7 57
e 7 54
e 7 50
e 7 45
e 7 41
e 7 40
e 7 39
e 7 32
e 7 20
e 7 11
e 8 72
e 8 71
e 8 68
e 8 64
e 8 62
e 8 61
e 8 56
e 8 53
e 8 52
e 8 51
e 8 47
e 8 36
e 8 35
e 8 27
e 9 72
e 9 70
e 9 68
e 9 65
e 9 64
e 9 62
e 9 60
e 9 56
e 9 55
e 9 52
e 9 51
e 9 49
e 9 48
e 9 47
e 9 33
e 9 28
e 9 22
e 9 21
e 9 17
e 9 16
e 9 10
e 10 76
e 10 63
e 10 58
e 10 54
e 10 46
e 10 45
e 10 42
e 10 41
e 10 37
e 10 34
e 10 23
e 10 19
e 10 18
e 10 15
e 10 13
e 11 72
e 11 71
e 11 70
e 11 64
e 11 61
e 11 60
e 11 51
e 11 47
e 11 43
e 11 35
e 11 33
e 12 79
e 12 74
e 12 42
e 12 41
e 12 40
e 12 39
e 12 37
e 12 30
e 12 20
e 12 19
e 12 15
e 13 67
e 13 66
e 13 62
e 13 56
e 13 55
e 13 36
e 13 35
e 13 22
e 13 17
e 13 14
e 14 77
e 14 76
e 14 75
e 14 63
e 14 58
e 14 54
e 14 41
e 14 40
e 14 39
e 14 37
e 14 32
e 14 31
e 14 30
e 14 23
e 14 18
e 15 72
e 15 71
e 15 70
e 15 68
e 15 67
e 15 64
e 15 61
e 15 49
e 15 43
e 15 38
e 15 35
e 15 33
e 15 27
e 15 24
e 15 21
e 15 17
e 16 78
e 16 75
e 16 73
e 16 63
e 16 45
e 16 42
e 16 31
e 16 30
e 16 25
e 16 23
e 16 20
e 16 19
e 17 79
e 17 77
e 17 74
e 17 73
e 17 63
e 17 57
e 17 54
e 17 50
e 17 45
e 17 40
e 17 32
e 17 30
e 17 25
e 17 23
e 17 20
e 18 72
e 18 70
e 18 66
e 18 64
e 18 53
e 18 52
e 18 49
e 18 48
e 18 43
e 18 36
e 18 35
e 18 33
e 18 28
e 19 72
e 19 70
e 19 67
e 19 65
e 19 60
e 19 56
e 19 49
e 19 48
e 19 38
e 19 33
e 19 27
e 20 71
e 20 70
e 20 56
e 20 48
e 20 44
e 20 36
e 20 28
e 20 27
e 20 26
e 20 21
e 21 78
e 21 77
e 21 75
e 21 73
e 21 69
e 21 59
e 21 54
e 21 46
e 21 37
e 21 34
e 21 31
e 21 30
e 21 25
e 22 80
e 22 58
e 22 57
e 22 50
e 22 39
e 22 34
e 22 32
e 22 30
e 23 72
e 23 71
e 23 70
e 23 65
e 23 61
e 23 56
e 23 38
e 23 35
e 23 29
e 24 80
e 24 79
e 24 77
e 24 74
e 24 69
e 24 58
e 24 57
e 24 42
e 24 41
e 24 39
e 24 37
e 25 72
e 25 67
e 25 65
e 25 61
e 25 56
e 25 51
e 25 49
e 25 47
e 25 44
e 25 43
e 25 36
e 25 29
e 25 28
e 25 26
e 26 80
e 26 79
e 26 76
e 26 45
e 26 39
e 26 31
e 26 30
e 27 80
e 27 79
e 27 77
e 27 74
e 27 73
e 27 63
e 27 59
e 27 58
e 27 54
e 27 46
e 27 45
e 27 40
e 27 39
e 27 37
e 27 34
e 27 31
e 27 30
e 28 80
e 28 74
e 28 57
e 28 50
e 28 46
e 28 42
e 28 40
e 28 34
e 28 31
e 29 80
e 29 79
e 29 77
e 29 76
e 29 69
e 29 54
e 29 45
e 29 39
e 29 37
e 29 31
e 29 30
e 30 72
e 30 67
e 30 66
e 30 64
e 30 51
e 30 48
e 30 44
e 30 38
e 30 36
e 30 33
e 31 65
e 31 62
e 31 60
e 31 55
e 31 53
e 31 51
e 31 48
e 31 44
e 31 43
e 31 38
e 31 35
e 32 70
e 32 66
e 32 65
e 32 62
e 32 61
e 32 52
e 32 49
e 33 79
e 33 75
e 33 74
e 33 73
e 33 69
e 33 63
e 33 59
e 33 57
e 34 72
e 34 71
e 34 66
e 34 61
e 34 56
e 34 55
e 34 48
e 34 44
e 34 43
e 34 38
e 35 80
e 35 74
e 35 57
e 35 54
e 35 45
e 35 40
e 35 37
e 36 80
e 36 69
e 36 63
e 36 58
e 36 50
e 36 42
e 36 40
e 36 37
e 37 72
e 37 70
e 37 68
e 37 55
e 37 53
e 37 51
e 37 43
e 38 80
e 38 79
e 38 78
e 38 77
e 38 75
e 38 74
e 38 63
e 38 46
e 38 42
e 38 41
e 38 40
e 39 72
e 39 71
e 39 67
e 39 66
e 39 65
e 39 62
e 39 60
e 39 52
e 39 51
e 39 48
e 39 47
e 40 72
e 40 67
e 40 52
e 40 49
e 40 43
e 41 56
e 41 55
e 41 48
e 42 67
e 42 66
e 42 65
e 42 62
e 42 53
e 42 48
e 43 80
e 43 57
e 43 54
e 44 80
e 44 77
e 44 76
e 44 73
e 44 63
e 44 45
e 45 72
e 45 71
e 45 68
e 45 66
e 45 61
e 45 56
e 45 55
e 45 53
e 45 51
e 45 48
e 46 71
e 46 68
e 46 67
e 46 61
e 46 56
e 46 55
e 46 53
e 46 52
e 46 51
e 46 47
e 47 79
e 47 75
e 47 73
e 47 69
e 47 63
e 47 59
e 47 58
e 47 50
e 48 80
e 48 79
e 48 78
e 48 76
e 48 75
e 48 74
e 48 69
e 48 58
e 48 57
e 48 54
e 48 50
e 49 78
e 49 77
e 49 73
e 49 59
e 50 72
e 50 71
e 50 70
e 50 66
e 50 64
e 50 60
e 50 55
e 50 53
e 51 80
e 51 79
e 51 74
e 51 58
e 52 73
e 52 63
e 52 59
e 53 80
e 53 77
e 53 75
e 53 73
e 54 71
e 54 68
e 54 65
e 54 64
e 54 55
e 55 78
e 55 73
e 55 63
e 55 58
e 56 80
e 56 79
e 56 78
e 56 77
e 56 76
e 56 75
e 56 69
e 56 58
e 57 70
e 57 68
e 57 61
e 57 60
e 58 72
e 58 70
e 58 61
e 59 70
e 59 68
e 59 60
e 60 80
e 60 79
e 60 78
e 60 77
e 60 73
e 60 69
e 60 63
e 61 79
e 61 78
e 61 76
e 61 75
e 61 74
e 61 73
e 61 69
e 62 80
e 62 79
e 62 78
e 62 75
e 63 72
e 63 71
e 63 65
e 64 80
e 64 78
e 64 73
e 64 69
e 65 79
e 65 76
e 65 74
e 65 73
e 66 80
e 66 79
e 66 77
e 66 76
e 66 69
e 67 79
e 67 77
e 67 76
e 67 75
e 67 74
e 67 69
e 68 78
e 68 69
e 69 72
e 69 70
e 70 77
e 71 80
e 72 79
e 72 73
